p cnf 92 88
-1 20 37 49 52 75 77 -78 0 
-2 77 -78 0 
-3 51 58 76 78 0 
-4 77 -78 0 
-5 6 -2 77 -78 0 
-6 5 77 -78 0 
-7 13 -4 77 -78 0 
-8 78 0 
-9 72 78 0 
-6 5 79 -78 0 
-10 15 78 0 
-11 56 78 0 
-12 78 0 
-13 7 78 0 
-14 30 53 78 0 
-15 10 78 0 
-16 78 0 
-17 -4 77 -78 0 
-18 50 55 67 68 79 -78 0 
-19 78 0 
-5 6 -20 1 37 49 52 75 -8 78 0 
-21 -22 -23 24 78 0 
-24 23 80 -78 0 
-25 81 -78 0 
-26 -27 82 -78 0 
-28 81 -78 0 
-6 5 -29 33 -30 14 53 77 -78 0 
-29 33 77 -78 0 
-31 43 78 0 
-32 66 71 78 0 
-33 29 78 0 
-5 6 -20 1 37 49 52 75 -34 78 0 
-35 83 0 
-36 78 0 
-37 1 20 49 52 75 78 0 
-38 45 61 62 63 64 78 0 
-39 78 0 
-40 78 0 
-41 -34 78 0 
-42 78 0 
-43 31 78 0 
-44 78 0 
-45 38 61 62 63 64 78 0 
-46 73 -13 7 78 0 
-47 78 0 
-48 78 0 
-49 1 20 37 52 75 -50 18 55 67 68 -51 3 58 76 84 -78 0 
-24 23 85 -78 0 
-52 1 20 37 49 75 -53 14 30 -26 -54 82 -78 0 
-22 -55 18 50 67 68 78 0 
-46 73 78 0 
-56 11 -57 78 0 
-58 3 51 76 78 0 
-59 78 0 
-60 -8 86 -78 0 
-60 -57 87 -78 0 
-60 -57 88 -78 0 
-31 43 78 0 
-61 38 45 62 63 64 78 0 
-62 38 45 61 63 64 78 0 
-63 38 45 61 62 64 78 0 
-64 38 45 61 62 63 78 0 
-65 -6 5 77 -78 0 
-66 32 71 77 -78 0 
-17 -2 77 -78 0 
-67 18 50 55 68 80 -78 0 
-68 18 50 55 67 80 -78 0 
-5 6 -20 1 37 49 52 75 -69 78 0 
-65 -46 73 78 0 
-70 -71 32 66 77 -78 0 
-5 6 -4 77 -78 0 
-4 -2 77 -78 0 
-11 56 -72 9 78 0 
-29 33 -1 20 37 49 52 75 77 -78 0 
-29 33 -73 46 77 -78 0 
-5 6 -13 7 78 0 
-74 89 -78 -4 0 
-71 32 66 77 -78 0 
-1 20 37 49 52 75 79 -78 0 
-46 73 90 -78 0 
-6 5 -1 20 37 49 52 75 77 -78 0 
-75 1 20 37 49 52 79 -78 0 
-76 3 51 58 84 -78 0 
-7 13 -29 33 -36 77 -78 0 
-15 10 91 -78 0 
-15 10 92 -78 0 
-16 92 -78 0 
-16 91 -78 0 
